(set-option :produce-models true); benchmark generated from python API
(set-info :status unknown)
(declare-fun l_0_0_4 () Real)
(declare-fun l_0_0_1 () Real)
(declare-fun _a_0_ () Real)
(declare-fun l_0_0_6 () Real)
(declare-fun l_0_0_5 () Real)
(declare-fun l_0_0_3 () Real)
(declare-fun l_0_0_2 () Real)
(declare-fun _a_1_ () Real)
(declare-fun _a_2_ () Real)
(declare-fun l_0_1_8 () Real)
(declare-fun l_0_1_7 () Real)
(declare-fun l_0_1_5 () Real)
(declare-fun l_0_1_4 () Real)
(declare-fun l_0_1_1 () Real)
(declare-fun l_0_1_2 () Real)
(declare-fun l_0_1_9 () Real)
(declare-fun l_0_1_6 () Real)
(declare-fun l_0_1_3 () Real)
(declare-fun l_0_2_7 () Real)
(declare-fun l_0_2_4 () Real)
(declare-fun l_0_2_1 () Real)
(declare-fun l_0_2_9 () Real)
(declare-fun l_0_2_8 () Real)
(declare-fun l_0_2_6 () Real)
(declare-fun l_0_2_5 () Real)
(declare-fun l_0_2_2 () Real)
(declare-fun l_0_2_3 () Real)
(assert
 (let ((?x36 (* l_0_0_4 l_0_0_4)))
 (= (- (- _a_0_ (* (* 1.0 l_0_0_1) l_0_0_1)) ?x36) 0.0)))
(assert
 (let ((?x75 (* l_0_0_6 l_0_0_6)))
 (let ((?x73 (* l_0_0_5 l_0_0_5)))
 (let ((?x58 (* l_0_0_1 l_0_0_1)))
 (let ((?x66 (+ _a_1_ ?x58)))
 (let ((?x72 (- (- ?x66 (* (* 1.0 l_0_0_2) l_0_0_2)) (* (* 1.0 l_0_0_3) l_0_0_3))))
 (= (- (- ?x72 ?x73) ?x75) 0.0)))))))
(assert
 (let ((?x99 (- (- _a_2_ (* (* 2.0 l_0_0_1) l_0_0_2)) (* (* 2.0 l_0_0_4) l_0_0_5))))
 (= ?x99 0.0)))
(assert
 (let ((?x95 (* (* 2.0 l_0_0_1) l_0_0_2)))
 (= ?x95 0.0)))
(assert
 (= (+ (* l_0_0_2 l_0_0_2) (* l_0_0_3 l_0_0_3)) 0.0))
(assert
 (>= l_0_0_1 0.0))
(assert
 (>= l_0_0_3 0.0))
(assert
 (>= l_0_0_4 0.0))
(assert
 (>= l_0_0_6 0.0))
(assert
 (let ((?x128 (- (* (* (* (- 2.0) _a_0_) l_0_1_1) l_0_1_2) (* (* _a_2_ l_0_1_1) l_0_1_1))))
 (let ((?x134 (- (+ ?x128 (* (* 2.0 l_0_1_4) l_0_1_5)) (* (* 2.0 l_0_1_7) l_0_1_8))))
 (= (+ ?x134 8.0) 0.0))))
(assert
 (let ((?x177 (* l_0_1_9 l_0_1_9)))
 (let ((?x175 (* l_0_1_8 l_0_1_8)))
 (let ((?x164 (- (* (- _a_0_) (+ (* l_0_1_2 l_0_1_2) (* l_0_1_3 l_0_1_3))) (* (* _a_1_ l_0_1_1) l_0_1_1))))
 (let ((?x171 (+ (- ?x164 (* (* (* 2.0 _a_2_) l_0_1_1) l_0_1_2)) (* 1.0 (* l_0_1_5 l_0_1_5)))))
 (let ((?x179 (- (- (- (+ ?x171 (* 1.0 (* l_0_1_6 l_0_1_6))) ?x175) ?x177) 1.0)))
 (= ?x179 0.0)))))))
(assert
 (let ((?x213 (* l_0_1_7 l_0_1_7)))
 (let ((?x212 (+ (* (* (- _a_0_) l_0_1_1) l_0_1_1) (* 1.0 (* l_0_1_4 l_0_1_4)))))
 (= (- (- ?x212 ?x213) 15.0) 0.0))))
(assert
 (let ((?x233 (- (* (* (* (- 2.0) _a_1_) l_0_1_1) l_0_1_2) (* _a_2_ (+ (* l_0_1_2 l_0_1_2) (* l_0_1_3 l_0_1_3))))))
 (= ?x233 0.0)))
(assert
 (= (* (- _a_1_) (+ (* l_0_1_2 l_0_1_2) (* l_0_1_3 l_0_1_3))) 0.0))
(assert
 (>= l_0_1_1 0.0))
(assert
 (>= l_0_1_3 0.0))
(assert
 (>= l_0_1_4 0.0))
(assert
 (>= l_0_1_6 0.0))
(assert
 (>= l_0_1_7 0.0))
(assert
 (>= l_0_1_9 0.0))
(assert
 (let ((?x275 (* l_0_2_7 l_0_2_7)))
 (let ((?x274 (- (+ (* (* (- _a_0_) l_0_2_1) l_0_2_1) _a_0_) (* (* 1.0 l_0_2_4) l_0_2_4))))
 (= (- ?x274 ?x275) 0.0))))
(assert
 (let ((?x313 (* l_0_2_9 l_0_2_9)))
 (let ((?x311 (* l_0_2_8 l_0_2_8)))
 (let ((?x303 (* (/ 3.0 500.0) _a_2_)))
 (let ((?x297 (* (/ 15376.0 15625.0) _a_1_)))
 (let ((?x295 (- (* (- _a_0_) (+ (* l_0_2_2 l_0_2_2) (* l_0_2_3 l_0_2_3))) (* (* _a_1_ l_0_2_1) l_0_2_1))))
 (let ((?x304 (+ (- (+ ?x295 ?x297) (* (* (* 2.0 _a_2_) l_0_2_1) l_0_2_2)) ?x303)))
 (let ((?x310 (- (- ?x304 (* (* 1.0 l_0_2_5) l_0_2_5)) (* (* 1.0 l_0_2_6) l_0_2_6))))
 (= (- (- ?x310 ?x311) ?x313) 0.0)))))))))
(assert
 (let ((?x350 (* (/ 487.0 250000.0) _a_1_)))
 (let ((?x351 (- (* (- _a_1_) (+ (* l_0_2_2 l_0_2_2) (* l_0_2_3 l_0_2_3))) ?x350)))
 (= ?x351 0.0))))
(assert
 (let ((?x373 (* (/ 1.0 1000.0) _a_2_)))
 (let ((?x371 (- (+ (* (* (* (- 2.0) _a_1_) l_0_2_1) l_0_2_2) (* (/ 186.0 15625.0) _a_1_)) (* _a_2_ (+ (* l_0_2_2 l_0_2_2) (* l_0_2_3 l_0_2_3))))))
 (= (- ?x371 ?x373) 0.0))))
(assert
 (= (* (/ 1.0 1000000.0) _a_1_) 0.0))
(assert
 (= (* (- (/ 3.0 250000.0)) _a_1_) 0.0))
(assert
 (let ((?x410 (* (/ 124.0 125.0) _a_2_)))
 (let ((?x408 (- (* (* (* (- 2.0) _a_0_) l_0_2_1) l_0_2_2) (* (* _a_2_ l_0_2_1) l_0_2_1))))
 (let ((?x417 (- (- (+ ?x408 ?x410) (* (* 2.0 l_0_2_4) l_0_2_5)) (* (* 2.0 l_0_2_7) l_0_2_8))))
 (= ?x417 0.0)))))
(assert
 (>= l_0_2_1 0.0))
(assert
 (>= l_0_2_3 0.0))
(assert
 (>= l_0_2_4 0.0))
(assert
 (>= l_0_2_6 0.0))
(assert
 (>= l_0_2_7 0.0))
(assert
 (>= l_0_2_9 0.0))
(check-sat)
(get-model)